66	12	4	28	
8	5	5	14

0	0	0	0	0	0	4	1	2	3	4
1	0	0	0	6	8	1	7
2	0	3	0	0	5	1	5
3	0	0	0	3	1	3	8	9	10
4	0	0	0	6	10	2	7	9
5	0	0	3	0	5	1	6
6	0	0	0	5	10	1	10
7	8	0	0	0	6	1	11
8	0	0	0	6	4	1	11
9	0	0	0	9	9	1	11
10	0	3	0	0	8	1	11
11	0	0	0	0	0	0
